c Reduced graph for miles1000 generated by Cyril Grelier
p edge 128 3216
e 1 2
e 1 3
e 1 4
e 1 5
e 1 6
e 1 7
e 1 8
e 1 9
e 1 10
e 1 11
e 1 12
e 1 13
e 1 14
e 1 15
e 1 16
e 1 17
e 1 18
e 1 19
e 1 20
e 1 21
e 1 22
e 1 23
e 1 24
e 1 25
e 1 26
e 1 27
e 1 28
e 1 29
e 1 30
e 1 31
e 1 32
e 1 33
e 1 34
e 1 35
e 1 36
e 1 37
e 1 38
e 1 39
e 1 40
e 1 41
e 1 42
e 1 43
e 1 44
e 1 45
e 1 46
e 1 47
e 1 48
e 1 49
e 1 50
e 1 51
e 1 52
e 1 53
e 1 54
e 1 55
e 1 56
e 1 57
e 1 58
e 1 59
e 1 60
e 1 61
e 1 62
e 1 63
e 1 64
e 1 65
e 1 66
e 1 67
e 1 68
e 1 69
e 1 70
e 1 71
e 1 72
e 1 73
e 1 74
e 1 75
e 1 78
e 1 81
e 1 83
e 1 84
e 1 85
e 1 87
e 1 88
e 1 89
e 1 90
e 1 98
e 1 99
e 1 103
e 2 3
e 2 4
e 2 5
e 2 6
e 2 7
e 2 8
e 2 9
e 2 10
e 2 11
e 2 12
e 2 13
e 2 14
e 2 15
e 2 16
e 2 17
e 2 18
e 2 19
e 2 20
e 2 21
e 2 22
e 2 23
e 2 24
e 2 25
e 2 26
e 2 27
e 2 28
e 2 29
e 2 30
e 2 31
e 2 32
e 2 33
e 2 34
e 2 35
e 2 36
e 2 37
e 2 38
e 2 39
e 2 40
e 2 41
e 2 42
e 2 43
e 2 44
e 2 45
e 2 46
e 2 47
e 2 48
e 2 49
e 2 50
e 2 51
e 2 52
e 2 53
e 2 54
e 2 55
e 2 56
e 2 57
e 2 58
e 2 59
e 2 60
e 2 61
e 2 62
e 2 63
e 2 64
e 2 65
e 2 66
e 2 67
e 2 68
e 2 69
e 2 70
e 2 71
e 2 72
e 2 73
e 2 74
e 2 75
e 2 76
e 2 77
e 2 78
e 2 79
e 2 80
e 2 81
e 2 85
e 2 87
e 2 89
e 2 90
e 2 102
e 2 118
e 3 4
e 3 5
e 3 6
e 3 7
e 3 8
e 3 9
e 3 10
e 3 11
e 3 12
e 3 13
e 3 14
e 3 15
e 3 16
e 3 17
e 3 18
e 3 19
e 3 20
e 3 21
e 3 22
e 3 23
e 3 24
e 3 25
e 3 26
e 3 27
e 3 28
e 3 29
e 3 30
e 3 31
e 3 32
e 3 33
e 3 34
e 3 35
e 3 36
e 3 37
e 3 38
e 3 39
e 3 40
e 3 41
e 3 42
e 3 43
e 3 44
e 3 45
e 3 46
e 3 47
e 3 48
e 3 49
e 3 50
e 3 51
e 3 52
e 3 53
e 3 54
e 3 55
e 3 56
e 3 57
e 3 58
e 3 59
e 3 60
e 3 61
e 3 62
e 3 63
e 3 64
e 3 65
e 3 66
e 3 67
e 3 68
e 3 69
e 3 70
e 3 71
e 3 72
e 3 73
e 3 74
e 3 75
e 3 76
e 3 77
e 3 78
e 3 79
e 3 80
e 3 81
e 3 82
e 3 85
e 3 87
e 3 89
e 3 90
e 4 5
e 4 6
e 4 7
e 4 8
e 4 9
e 4 10
e 4 11
e 4 12
e 4 13
e 4 14
e 4 15
e 4 16
e 4 17
e 4 18
e 4 19
e 4 20
e 4 21
e 4 22
e 4 23
e 4 24
e 4 25
e 4 26
e 4 27
e 4 28
e 4 29
e 4 30
e 4 31
e 4 32
e 4 33
e 4 34
e 4 35
e 4 36
e 4 37
e 4 38
e 4 39
e 4 40
e 4 41
e 4 42
e 4 43
e 4 44
e 4 45
e 4 46
e 4 47
e 4 48
e 4 49
e 4 50
e 4 51
e 4 52
e 4 53
e 4 54
e 4 55
e 4 56
e 4 57
e 4 58
e 4 59
e 4 60
e 4 61
e 4 62
e 4 63
e 4 64
e 4 65
e 4 66
e 4 67
e 4 68
e 4 69
e 4 70
e 4 71
e 4 72
e 4 73
e 4 74
e 4 75
e 4 76
e 4 78
e 4 81
e 4 83
e 4 84
e 4 85
e 4 87
e 4 88
e 4 89
e 4 90
e 4 97
e 5 6
e 5 7
e 5 8
e 5 9
e 5 10
e 5 11
e 5 12
e 5 13
e 5 14
e 5 15
e 5 16
e 5 17
e 5 18
e 5 19
e 5 20
e 5 21
e 5 22
e 5 23
e 5 24
e 5 25
e 5 26
e 5 27
e 5 28
e 5 29
e 5 30
e 5 31
e 5 32
e 5 33
e 5 34
e 5 35
e 5 36
e 5 37
e 5 38
e 5 39
e 5 40
e 5 41
e 5 42
e 5 43
e 5 44
e 5 45
e 5 46
e 5 47
e 5 48
e 5 49
e 5 50
e 5 51
e 5 52
e 5 53
e 5 54
e 5 55
e 5 56
e 5 57
e 5 58
e 5 59
e 5 60
e 5 61
e 5 62
e 5 63
e 5 64
e 5 65
e 5 66
e 5 67
e 5 68
e 5 69
e 5 70
e 5 71
e 5 72
e 5 73
e 5 74
e 5 75
e 5 76
e 5 77
e 5 78
e 5 79
e 5 80
e 5 81
e 5 82
e 5 85
e 5 86
e 5 97
e 6 7
e 6 8
e 6 9
e 6 10
e 6 11
e 6 12
e 6 13
e 6 14
e 6 15
e 6 16
e 6 17
e 6 18
e 6 19
e 6 20
e 6 21
e 6 22
e 6 23
e 6 24
e 6 25
e 6 26
e 6 27
e 6 28
e 6 29
e 6 30
e 6 31
e 6 32
e 6 33
e 6 34
e 6 35
e 6 36
e 6 37
e 6 38
e 6 39
e 6 40
e 6 41
e 6 42
e 6 43
e 6 44
e 6 45
e 6 46
e 6 47
e 6 48
e 6 49
e 6 50
e 6 51
e 6 52
e 6 53
e 6 54
e 6 55
e 6 56
e 6 57
e 6 58
e 6 59
e 6 60
e 6 61
e 6 62
e 6 63
e 6 64
e 6 65
e 6 66
e 6 67
e 6 68
e 6 69
e 6 70
e 6 71
e 6 72
e 6 73
e 6 74
e 6 76
e 6 77
e 6 78
e 6 79
e 6 80
e 6 81
e 6 82
e 6 83
e 6 85
e 6 97
e 7 8
e 7 9
e 7 10
e 7 11
e 7 12
e 7 13
e 7 14
e 7 15
e 7 16
e 7 17
e 7 18
e 7 19
e 7 20
e 7 21
e 7 22
e 7 23
e 7 24
e 7 25
e 7 26
e 7 27
e 7 28
e 7 29
e 7 30
e 7 31
e 7 32
e 7 33
e 7 34
e 7 35
e 7 36
e 7 37
e 7 38
e 7 39
e 7 40
e 7 41
e 7 42
e 7 43
e 7 44
e 7 45
e 7 46
e 7 47
e 7 48
e 7 49
e 7 50
e 7 51
e 7 52
e 7 53
e 7 54
e 7 55
e 7 56
e 7 57
e 7 58
e 7 59
e 7 60
e 7 61
e 7 62
e 7 63
e 7 64
e 7 65
e 7 66
e 7 67
e 7 68
e 7 69
e 7 70
e 7 72
e 7 73
e 7 74
e 7 75
e 7 76
e 7 77
e 7 78
e 7 79
e 7 80
e 7 81
e 7 82
e 7 85
e 7 86
e 7 90
e 8 9
e 8 10
e 8 11
e 8 12
e 8 13
e 8 14
e 8 15
e 8 16
e 8 17
e 8 18
e 8 19
e 8 20
e 8 21
e 8 22
e 8 23
e 8 24
e 8 25
e 8 26
e 8 27
e 8 28
e 8 29
e 8 30
e 8 31
e 8 32
e 8 33
e 8 34
e 8 35
e 8 36
e 8 37
e 8 38
e 8 39
e 8 40
e 8 41
e 8 42
e 8 43
e 8 44
e 8 45
e 8 46
e 8 47
e 8 48
e 8 49
e 8 50
e 8 51
e 8 52
e 8 53
e 8 54
e 8 55
e 8 56
e 8 57
e 8 58
e 8 59
e 8 60
e 8 61
e 8 62
e 8 63
e 8 64
e 8 65
e 8 66
e 8 67
e 8 68
e 8 69
e 8 70
e 8 71
e 8 72
e 8 73
e 8 74
e 8 75
e 8 76
e 8 77
e 8 78
e 8 79
e 8 80
e 8 82
e 8 85
e 8 86
e 8 97
e 9 10
e 9 11
e 9 12
e 9 13
e 9 14
e 9 15
e 9 16
e 9 17
e 9 18
e 9 19
e 9 20
e 9 21
e 9 22
e 9 23
e 9 24
e 9 25
e 9 26
e 9 27
e 9 28
e 9 29
e 9 30
e 9 31
e 9 32
e 9 33
e 9 34
e 9 35
e 9 36
e 9 37
e 9 38
e 9 39
e 9 40
e 9 41
e 9 42
e 9 43
e 9 44
e 9 45
e 9 46
e 9 47
e 9 48
e 9 49
e 9 50
e 9 51
e 9 52
e 9 53
e 9 54
e 9 55
e 9 56
e 9 57
e 9 58
e 9 59
e 9 60
e 9 61
e 9 62
e 9 63
e 9 64
e 9 65
e 9 66
e 9 67
e 9 68
e 9 69
e 9 70
e 9 72
e 9 73
e 9 74
e 9 75
e 9 76
e 9 77
e 9 78
e 9 79
e 9 80
e 9 82
e 9 86
e 9 90
e 10 11
e 10 12
e 10 13
e 10 14
e 10 15
e 10 16
e 10 17
e 10 18
e 10 19
e 10 20
e 10 21
e 10 22
e 10 23
e 10 24
e 10 25
e 10 26
e 10 27
e 10 28
e 10 29
e 10 30
e 10 31
e 10 32
e 10 33
e 10 34
e 10 35
e 10 36
e 10 37
e 10 38
e 10 39
e 10 40
e 10 41
e 10 42
e 10 43
e 10 44
e 10 45
e 10 46
e 10 47
e 10 48
e 10 49
e 10 50
e 10 51
e 10 52
e 10 53
e 10 54
e 10 55
e 10 56
e 10 57
e 10 58
e 10 59
e 10 60
e 10 61
e 10 62
e 10 63
e 10 64
e 10 65
e 10 66
e 10 67
e 10 69
e 10 70
e 10 72
e 10 73
e 10 75
e 10 76
e 10 77
e 10 78
e 10 79
e 10 80
e 10 82
e 10 85
e 10 86
e 11 12
e 11 13
e 11 14
e 11 15
e 11 16
e 11 17
e 11 18
e 11 19
e 11 20
e 11 21
e 11 22
e 11 23
e 11 24
e 11 25
e 11 26
e 11 27
e 11 28
e 11 29
e 11 30
e 11 31
e 11 32
e 11 33
e 11 34
e 11 35
e 11 36
e 11 37
e 11 38
e 11 39
e 11 40
e 11 41
e 11 42
e 11 43
e 11 44
e 11 45
e 11 46
e 11 47
e 11 48
e 11 49
e 11 50
e 11 51
e 11 53
e 11 54
e 11 55
e 11 57
e 11 58
e 11 59
e 11 60
e 11 61
e 11 62
e 11 63
e 11 64
e 11 65
e 11 67
e 11 68
e 11 70
e 11 71
e 11 72
e 11 73
e 11 74
e 11 76
e 11 77
e 11 78
e 11 80
e 11 81
e 11 83
e 11 85
e 11 87
e 11 97
e 12 13
e 12 14
e 12 15
e 12 16
e 12 17
e 12 18
e 12 19
e 12 20
e 12 21
e 12 22
e 12 23
e 12 24
e 12 25
e 12 26
e 12 27
e 12 28
e 12 29
e 12 30
e 12 31
e 12 32
e 12 33
e 12 34
e 12 35
e 12 36
e 12 37
e 12 38
e 12 39
e 12 40
e 12 41
e 12 42
e 12 43
e 12 44
e 12 45
e 12 46
e 12 47
e 12 48
e 12 49
e 12 50
e 12 51
e 12 52
e 12 53
e 12 54
e 12 55
e 12 56
e 12 57
e 12 58
e 12 59
e 12 60
e 12 61
e 12 62
e 12 63
e 12 64
e 12 65
e 12 66
e 12 67
e 12 69
e 12 70
e 12 73
e 12 75
e 12 76
e 12 77
e 12 78
e 12 79
e 12 80
e 12 82
e 12 86
e 13 14
e 13 15
e 13 16
e 13 17
e 13 18
e 13 19
e 13 20
e 13 21
e 13 22
e 13 23
e 13 24
e 13 25
e 13 26
e 13 27
e 13 28
e 13 29
e 13 30
e 13 31
e 13 32
e 13 33
e 13 34
e 13 35
e 13 36
e 13 38
e 13 39
e 13 40
e 13 41
e 13 42
e 13 43
e 13 44
e 13 45
e 13 46
e 13 48
e 13 49
e 13 50
e 13 51
e 13 52
e 13 53
e 13 54
e 13 55
e 13 56
e 13 57
e 13 59
e 13 61
e 13 62
e 13 63
e 13 64
e 13 65
e 13 66
e 13 67
e 13 68
e 13 69
e 13 73
e 13 75
e 13 76
e 13 77
e 13 79
e 13 80
e 13 82
e 13 86
e 13 90
e 13 102
e 13 118
e 13 123
e 14 15
e 14 16
e 14 17
e 14 18
e 14 19
e 14 20
e 14 21
e 14 22
e 14 23
e 14 24
e 14 25
e 14 26
e 14 27
e 14 28
e 14 29
e 14 30
e 14 31
e 14 32
e 14 33
e 14 34
e 14 35
e 14 36
e 14 37
e 14 38
e 14 39
e 14 40
e 14 41
e 14 42
e 14 43
e 14 44
e 14 45
e 14 46
e 14 47
e 14 48
e 14 49
e 14 50
e 14 51
e 14 52
e 14 54
e 14 55
e 14 56
e 14 57
e 14 58
e 14 59
e 14 61
e 14 62
e 14 63
e 14 64
e 14 65
e 14 66
e 14 67
e 14 69
e 14 70
e 14 73
e 14 75
e 14 76
e 14 77
e 14 78
e 14 79
e 14 80
e 14 82
e 14 86
e 15 16
e 15 17
e 15 18
e 15 19
e 15 20
e 15 21
e 15 22
e 15 23
e 15 24
e 15 25
e 15 26
e 15 27
e 15 28
e 15 29
e 15 30
e 15 31
e 15 32
e 15 33
e 15 34
e 15 35
e 15 36
e 15 37
e 15 38
e 15 39
e 15 40
e 15 41
e 15 42
e 15 45
e 15 47
e 15 48
e 15 49
e 15 51
e 15 53
e 15 54
e 15 55
e 15 58
e 15 60
e 15 63
e 15 65
e 15 66
e 15 68
e 15 69
e 15 70
e 15 71
e 15 72
e 15 74
e 15 75
e 15 78
e 15 81
e 15 83
e 15 84
e 15 85
e 15 87
e 15 88
e 15 89
e 15 93
e 15 94
e 15 97
e 15 98
e 15 99
e 15 103
e 16 17
e 16 18
e 16 19
e 16 20
e 16 21
e 16 22
e 16 23
e 16 24
e 16 25
e 16 26
e 16 27
e 16 28
e 16 29
e 16 30
e 16 31
e 16 32
e 16 33
e 16 34
e 16 35
e 16 36
e 16 37
e 16 38
e 16 39
e 16 40
e 16 41
e 16 42
e 16 43
e 16 44
e 16 45
e 16 46
e 16 47
e 16 48
e 16 49
e 16 50
e 16 51
e 16 52
e 16 54
e 16 55
e 16 56
e 16 57
e 16 58
e 16 59
e 16 61
e 16 62
e 16 63
e 16 64
e 16 65
e 16 66
e 16 67
e 16 69
e 16 70
e 16 73
e 16 75
e 16 76
e 16 77
e 16 79
e 16 80
e 16 82
e 16 86
e 16 90
e 17 18
e 17 19
e 17 20
e 17 21
e 17 22
e 17 23
e 17 24
e 17 25
e 17 26
e 17 27
e 17 28
e 17 29
e 17 30
e 17 31
e 17 32
e 17 33
e 17 34
e 17 35
e 17 36
e 17 37
e 17 38
e 17 39
e 17 40
e 17 41
e 17 42
e 17 43
e 17 44
e 17 45
e 17 46
e 17 47
e 17 48
e 17 49
e 17 50
e 17 51
e 17 52
e 17 54
e 17 55
e 17 56
e 17 57
e 17 58
e 17 59
e 17 61
e 17 62
e 17 63
e 17 64
e 17 65
e 17 66
e 17 67
e 17 69
e 17 70
e 17 73
e 17 75
e 17 76
e 17 77
e 17 79
e 17 80
e 17 82
e 17 86
e 17 90
e 18 19
e 18 20
e 18 21
e 18 22
e 18 23
e 18 24
e 18 25
e 18 26
e 18 27
e 18 28
e 18 29
e 18 30
e 18 31
e 18 32
e 18 33
e 18 34
e 18 35
e 18 36
e 18 37
e 18 38
e 18 39
e 18 40
e 18 41
e 18 42
e 18 43
e 18 44
e 18 45
e 18 46
e 18 47
e 18 49
e 18 50
e 18 52
e 18 53
e 18 55
e 18 56
e 18 58
e 18 60
e 18 63
e 18 65
e 18 66
e 18 68
e 18 69
e 18 70
e 18 72
e 18 74
e 18 75
e 18 81
e 18 87
e 18 89
e 18 90
e 18 98
e 18 99
e 18 102
e 18 103
e 18 118
e 18 123
e 19 20
e 19 21
e 19 22
e 19 23
e 19 24
e 19 25
e 19 26
e 19 27
e 19 28
e 19 29
e 19 30
e 19 31
e 19 32
e 19 33
e 19 34
e 19 35
e 19 36
e 19 37
e 19 38
e 19 39
e 19 40
e 19 41
e 19 42
e 19 43
e 19 44
e 19 45
e 19 46
e 19 47
e 19 48
e 19 49
e 19 50
e 19 51
e 19 52
e 19 54
e 19 55
e 19 57
e 19 58
e 19 59
e 19 60
e 19 61
e 19 62
e 19 63
e 19 64
e 19 65
e 19 67
e 19 70
e 19 73
e 19 76
e 19 77
e 19 78
e 19 79
e 19 80
e 19 82
e 19 85
e 19 86
e 20 21
e 20 22
e 20 23
e 20 24
e 20 25
e 20 26
e 20 27
e 20 28
e 20 29
e 20 30
e 20 31
e 20 32
e 20 33
e 20 34
e 20 36
e 20 37
e 20 38
e 20 39
e 20 41
e 20 42
e 20 45
e 20 47
e 20 48
e 20 49
e 20 51
e 20 53
e 20 55
e 20 56
e 20 58
e 20 60
e 20 63
e 20 65
e 20 66
e 20 68
e 20 69
e 20 70
e 20 71
e 20 72
e 20 74
e 20 75
e 20 78
e 20 81
e 20 83
e 20 84
e 20 85
e 20 87
e 20 88
e 20 89
e 20 93
e 20 94
e 20 98
e 20 99
e 20 103
e 21 22
e 21 23
e 21 24
e 21 25
e 21 26
e 21 27
e 21 28
e 21 29
e 21 30
e 21 31
e 21 32
e 21 33
e 21 34
e 21 35
e 21 36
e 21 37
e 21 39
e 21 40
e 21 41
e 21 42
e 21 44
e 21 47
e 21 48
e 21 49
e 21 51
e 21 53
e 21 54
e 21 55
e 21 58
e 21 60
e 21 61
e 21 62
e 21 63
e 21 65
e 21 68
e 21 70
e 21 71
e 21 72
e 21 74
e 21 78
e 21 81
e 21 83
e 21 84
e 21 85
e 21 87
e 21 88
e 21 89
e 21 96
e 21 97
e 21 101
e 21 114
e 22 23
e 22 24
e 22 25
e 22 26
e 22 27
e 22 28
e 22 29
e 22 30
e 22 31
e 22 32
e 22 33
e 22 34
e 22 35
e 22 36
e 22 37
e 22 38
e 22 40
e 22 41
e 22 42
e 22 43
e 22 44
e 22 45
e 22 46
e 22 47
e 22 48
e 22 49
e 22 50
e 22 51
e 22 52
e 22 54
e 22 56
e 22 57
e 22 58
e 22 59
e 22 61
e 22 62
e 22 63
e 22 64
e 22 65
e 22 66
e 22 67
e 22 69
e 22 70
e 22 73
e 22 76
e 22 77
e 22 79
e 22 80
e 22 82
e 22 86
e 23 24
e 23 25
e 23 26
e 23 27
e 23 28
e 23 29
e 23 30
e 23 31
e 23 32
e 23 33
e 23 34
e 23 35
e 23 36
e 23 37
e 23 38
e 23 40
e 23 41
e 23 43
e 23 44
e 23 45
e 23 46
e 23 48
e 23 49
e 23 50
e 23 51
e 23 52
e 23 54
e 23 56
e 23 57
e 23 59
e 23 61
e 23 62
e 23 63
e 23 64
e 23 65
e 23 66
e 23 67
e 23 69
e 23 70
e 23 73
e 23 75
e 23 76
e 23 77
e 23 79
e 23 80
e 23 82
e 23 86
e 23 90
e 24 25
e 24 26
e 24 27
e 24 28
e 24 29
e 24 30
e 24 31
e 24 32
e 24 33
e 24 35
e 24 36
e 24 38
e 24 40
e 24 42
e 24 43
e 24 44
e 24 45
e 24 46
e 24 48
e 24 49
e 24 50
e 24 51
e 24 52
e 24 53
e 24 54
e 24 56
e 24 57
e 24 59
e 24 61
e 24 62
e 24 64
e 24 65
e 24 66
e 24 67
e 24 69
e 24 73
e 24 75
e 24 76
e 24 77
e 24 79
e 24 80
e 24 82
e 24 86
e 24 90
e 24 102
e 24 118
e 24 123
e 25 26
e 25 27
e 25 28
e 25 29
e 25 30
e 25 31
e 25 32
e 25 33
e 25 34
e 25 35
e 25 36
e 25 37
e 25 39
e 25 40
e 25 41
e 25 42
e 25 43
e 25 44
e 25 47
e 25 48
e 25 49
e 25 50
e 25 51
e 25 53
e 25 54
e 25 55
e 25 58
e 25 59
e 25 60
e 25 61
e 25 62
e 25 63
e 25 64
e 25 65
e 25 67
e 25 68
e 25 70
e 25 71
e 25 72
e 25 73
e 25 74
e 25 78
e 25 83
e 25 85
e 25 97
e 25 101
e 26 27
e 26 28
e 26 29
e 26 30
e 26 31
e 26 32
e 26 33
e 26 34
e 26 35
e 26 36
e 26 38
e 26 39
e 26 40
e 26 41
e 26 42
e 26 43
e 26 44
e 26 45
e 26 46
e 26 49
e 26 50
e 26 52
e 26 53
e 26 55
e 26 56
e 26 57
e 26 59
e 26 60
e 26 66
e 26 68
e 26 69
e 26 72
e 26 74
e 26 75
e 26 81
e 26 87
e 26 89
e 26 90
e 26 98
e 26 99
e 26 102
e 26 103
e 26 118
e 26 123
e 27 28
e 27 29
e 27 31
e 27 32
e 27 33
e 27 35
e 27 36
e 27 38
e 27 40
e 27 42
e 27 43
e 27 44
e 27 45
e 27 46
e 27 48
e 27 49
e 27 50
e 27 51
e 27 52
e 27 54
e 27 56
e 27 57
e 27 59
e 27 61
e 27 62
e 27 64
e 27 65
e 27 66
e 27 67
e 27 69
e 27 73
e 27 75
e 27 76
e 27 77
e 27 79
e 27 80
e 27 82
e 27 86
e 27 90
e 27 102
e 27 118
e 27 123
e 28 29
e 28 31
e 28 32
e 28 33
e 28 35
e 28 36
e 28 38
e 28 40
e 28 42
e 28 43
e 28 44
e 28 45
e 28 46
e 28 48
e 28 50
e 28 51
e 28 52
e 28 53
e 28 54
e 28 56
e 28 57
e 28 59
e 28 61
e 28 62
e 28 64
e 28 66
e 28 67
e 28 68
e 28 69
e 28 73
e 28 75
e 28 76
e 28 77
e 28 79
e 28 80
e 28 82
e 28 86
e 28 90
e 28 102
e 28 118
e 28 123
e 29 30
e 29 31
e 29 32
e 29 33
e 29 34
e 29 35
e 29 37
e 29 39
e 29 40
e 29 41
e 29 43
e 29 44
e 29 46
e 29 47
e 29 48
e 29 49
e 29 50
e 29 51
e 29 54
e 29 57
e 29 58
e 29 59
e 29 61
e 29 62
e 29 63
e 29 64
e 29 65
e 29 67
e 29 70
e 29 73
e 29 76
e 29 77
e 29 78
e 29 79
e 29 80
e 29 82
e 29 85
e 29 86
e 29 97
e 30 31
e 30 32
e 30 34
e 30 36
e 30 37
e 30 39
e 30 41
e 30 42
e 30 47
e 30 48
e 30 49
e 30 51
e 30 53
e 30 55
e 30 58
e 30 60
e 30 63
e 30 65
e 30 68
e 30 70
e 30 71
e 30 72
e 30 74
e 30 78
e 30 81
e 30 83
e 30 84
e 30 85
e 30 87
e 30 88
e 30 89
e 30 91
e 30 93
e 30 94
e 30 96
e 30 97
e 30 98
e 30 99
e 30 101
e 30 103
e 31 32
e 31 33
e 31 35
e 31 36
e 31 37
e 31 38
e 31 40
e 31 41
e 31 43
e 31 44
e 31 45
e 31 46
e 31 48
e 31 49
e 31 50
e 31 51
e 31 52
e 31 54
e 31 56
e 31 57
e 31 59
e 31 61
e 31 62
e 31 63
e 31 64
e 31 65
e 31 66
e 31 67
e 31 70
e 31 73
e 31 76
e 31 77
e 31 79
e 31 80
e 31 82
e 31 86
e 32 33
e 32 34
e 32 35
e 32 37
e 32 39
e 32 40
e 32 41
e 32 42
e 32 44
e 32 47
e 32 48
e 32 49
e 32 50
e 32 51
e 32 53
e 32 54
e 32 55
e 32 58
e 32 60
e 32 61
e 32 62
e 32 63
e 32 64
e 32 65
e 32 67
e 32 70
e 32 71
e 32 72
e 32 73
e 32 78
e 32 83
e 32 85
e 32 97
e 32 101
e 32 114
e 33 35
e 33 36
e 33 38
e 33 40
e 33 41
e 33 43
e 33 44
e 33 45
e 33 46
e 33 48
e 33 49
e 33 50
e 33 51
e 33 52
e 33 54
e 33 56
e 33 57
e 33 59
e 33 61
e 33 62
e 33 64
e 33 65
e 33 66
e 33 67
e 33 69
e 33 73
e 33 75
e 33 76
e 33 77
e 33 79
e 33 80
e 33 82
e 33 86
e 33 90
e 33 102
e 34 36
e 34 37
e 34 39
e 34 41
e 34 42
e 34 47
e 34 48
e 34 49
e 34 53
e 34 55
e 34 58
e 34 60
e 34 63
e 34 65
e 34 68
e 34 70
e 34 71
e 34 72
e 34 74
e 34 78
e 34 81
e 34 83
e 34 84
e 34 85
e 34 87
e 34 88
e 34 89
e 34 91
e 34 93
e 34 94
e 34 96
e 34 97
e 34 98
e 34 99
e 34 101
e 34 103
e 35 36
e 35 38
e 35 40
e 35 43
e 35 44
e 35 45
e 35 46
e 35 48
e 35 49
e 35 50
e 35 51
e 35 52
e 35 54
e 35 56
e 35 57
e 35 59
e 35 61
e 35 62
e 35 64
e 35 66
e 35 67
e 35 69
e 35 73
e 35 75
e 35 76
e 35 77
e 35 79
e 35 80
e 35 82
e 35 86
e 35 90
e 35 102
e 36 38
e 36 39
e 36 42
e 36 43
e 36 44
e 36 45
e 36 46
e 36 50
e 36 52
e 36 53
e 36 55
e 36 56
e 36 57
e 36 60
e 36 66
e 36 68
e 36 69
e 36 72
e 36 74
e 36 75
e 36 81
e 36 87
e 36 89
e 36 90
e 36 98
e 36 99
e 36 102
e 36 103
e 36 118
e 36 123
e 37 39
e 37 41
e 37 42
e 37 47
e 37 48
e 37 49
e 37 53
e 37 55
e 37 58
e 37 60
e 37 63
e 37 65
e 37 68
e 37 70
e 37 71
e 37 72
e 37 74
e 37 78
e 37 81
e 37 83
e 37 84
e 37 85
e 37 87
e 37 88
e 37 89
e 37 91
e 37 92
e 37 93
e 37 94
e 37 96
e 37 97
e 37 98
e 37 101
e 37 114
e 38 40
e 38 42
e 38 43
e 38 44
e 38 45
e 38 46
e 38 50
e 38 51
e 38 52
e 38 53
e 38 54
e 38 56
e 38 57
e 38 59
e 38 61
e 38 62
e 38 64
e 38 66
e 38 67
e 38 68
e 38 69
e 38 73
e 38 75
e 38 76
e 38 77
e 38 79
e 38 80
e 38 82
e 38 90
e 38 102
e 38 118
e 38 123
e 39 41
e 39 42
e 39 47
e 39 49
e 39 53
e 39 55
e 39 58
e 39 60
e 39 63
e 39 65
e 39 68
e 39 70
e 39 71
e 39 72
e 39 74
e 39 78
e 39 81
e 39 83
e 39 84
e 39 85
e 39 87
e 39 88
e 39 89
e 39 91
e 39 92
e 39 93
e 39 94
e 39 96
e 39 97
e 39 98
e 39 99
e 39 101
e 39 103
e 40 41
e 40 43
e 40 44
e 40 45
e 40 46
e 40 48
e 40 49
e 40 50
e 40 51
e 40 52
e 40 54
e 40 56
e 40 57
e 40 59
e 40 61
e 40 62
e 40 64
e 40 65
e 40 66
e 40 67
e 40 69
e 40 73
e 40 76
e 40 77
e 40 79
e 40 80
e 40 82
e 40 86
e 41 47
e 41 48
e 41 49
e 41 51
e 41 53
e 41 54
e 41 55
e 41 58
e 41 60
e 41 63
e 41 65
e 41 68
e 41 70
e 41 71
e 41 72
e 41 74
e 41 78
e 41 81
e 41 83
e 41 84
e 41 85
e 41 87
e 41 88
e 41 96
e 41 97
e 41 101
e 41 114
e 42 45
e 42 46
e 42 47
e 42 49
e 42 52
e 42 53
e 42 55
e 42 56
e 42 60
e 42 66
e 42 68
e 42 69
e 42 72
e 42 74
e 42 75
e 42 81
e 42 84
e 42 87
e 42 89
e 42 90
e 42 94
e 42 98
e 42 99
e 42 102
e 42 103
e 42 118
e 42 123
e 43 44
e 43 45
e 43 46
e 43 48
e 43 50
e 43 51
e 43 52
e 43 54
e 43 56
e 43 57
e 43 59
e 43 61
e 43 62
e 43 64
e 43 66
e 43 67
e 43 69
e 43 73
e 43 75
e 43 76
e 43 77
e 43 79
e 43 80
e 43 82
e 43 86
e 43 90
e 43 102
e 43 118
e 43 123
e 44 45
e 44 46
e 44 48
e 44 49
e 44 50
e 44 51
e 44 52
e 44 54
e 44 56
e 44 57
e 44 59
e 44 61
e 44 62
e 44 64
e 44 66
e 44 67
e 44 69
e 44 73
e 44 76
e 44 77
e 44 79
e 44 80
e 44 82
e 44 86
e 44 90
e 45 46
e 45 50
e 45 52
e 45 53
e 45 54
e 45 56
e 45 57
e 45 59
e 45 61
e 45 62
e 45 64
e 45 66
e 45 67
e 45 68
e 45 69
e 45 74
e 45 75
e 45 77
e 45 79
e 45 81
e 45 89
e 45 90
e 45 102
e 45 118
e 45 123
e 46 50
e 46 51
e 46 52
e 46 54
e 46 56
e 46 57
e 46 59
e 46 61
e 46 62
e 46 64
e 46 66
e 46 67
e 46 69
e 46 73
e 46 75
e 46 76
e 46 77
e 46 79
e 46 80
e 46 82
e 46 86
e 46 90
e 46 102
e 46 118
e 46 123
e 47 48
e 47 49
e 47 53
e 47 55
e 47 58
e 47 60
e 47 63
e 47 65
e 47 68
e 47 70
e 47 71
e 47 72
e 47 74
e 47 78
e 47 81
e 47 83
e 47 84
e 47 85
e 47 87
e 47 88
e 47 89
e 47 91
e 47 92
e 47 93
e 47 94
e 47 96
e 47 97
e 47 98
e 47 101
e 47 114
e 48 49
e 48 50
e 48 51
e 48 54
e 48 58
e 48 59
e 48 61
e 48 62
e 48 63
e 48 64
e 48 65
e 48 67
e 48 70
e 48 73
e 48 76
e 48 77
e 48 78
e 48 80
e 48 85
e 48 97
e 49 51
e 49 54
e 49 55
e 49 58
e 49 60
e 49 62
e 49 63
e 49 65
e 49 70
e 49 71
e 49 72
e 49 78
e 49 83
e 49 85
e 49 97
e 49 101
e 49 114
e 50 51
e 50 52
e 50 54
e 50 56
e 50 57
e 50 59
e 50 61
e 50 62
e 50 64
e 50 66
e 50 67
e 50 69
e 50 73
e 50 75
e 50 76
e 50 77
e 50 79
e 50 80
e 50 82
e 50 86
e 50 90
e 51 52
e 51 54
e 51 57
e 51 59
e 51 61
e 51 62
e 51 63
e 51 64
e 51 65
e 51 67
e 51 70
e 51 73
e 51 76
e 51 77
e 51 79
e 51 80
e 51 82
e 51 86
e 52 54
e 52 56
e 52 57
e 52 59
e 52 61
e 52 62
e 52 64
e 52 66
e 52 67
e 52 69
e 52 73
e 52 75
e 52 76
e 52 77
e 52 79
e 52 80
e 52 82
e 52 86
e 52 90
e 52 102
e 52 118
e 52 123
e 53 55
e 53 56
e 53 58
e 53 60
e 53 63
e 53 66
e 53 68
e 53 69
e 53 71
e 53 72
e 53 74
e 53 75
e 53 78
e 53 81
e 53 84
e 53 87
e 53 88
e 53 89
e 53 90
e 53 93
e 53 94
e 53 98
e 53 99
e 53 102
e 53 103
e 54 56
e 54 57
e 54 59
e 54 61
e 54 62
e 54 64
e 54 65
e 54 67
e 54 73
e 54 76
e 54 77
e 54 79
e 54 80
e 54 82
e 54 86
e 55 58
e 55 60
e 55 63
e 55 65
e 55 68
e 55 70
e 55 71
e 55 72
e 55 74
e 55 75
e 55 78
e 55 81
e 55 83
e 55 84
e 55 85
e 55 87
e 55 88
e 55 89
e 55 93
e 55 94
e 55 98
e 55 99
e 55 103
e 56 57
e 56 59
e 56 61
e 56 62
e 56 64
e 56 66
e 56 67
e 56 68
e 56 69
e 56 75
e 56 76
e 56 77
e 56 79
e 56 81
e 56 90
e 56 102
e 56 118
e 56 123
e 57 59
e 57 61
e 57 62
e 57 64
e 57 66
e 57 67
e 57 69
e 57 73
e 57 75
e 57 76
e 57 77
e 57 79
e 57 80
e 57 82
e 57 86
e 57 90
e 57 102
e 58 60
e 58 63
e 58 65
e 58 68
e 58 70
e 58 71
e 58 72
e 58 74
e 58 78
e 58 81
e 58 83
e 58 84
e 58 85
e 58 87
e 58 88
e 58 89
e 58 91
e 58 93
e 58 96
e 58 97
e 58 101
e 58 114
e 59 61
e 59 62
e 59 64
e 59 66
e 59 67
e 59 69
e 59 73
e 59 76
e 59 77
e 59 79
e 59 80
e 59 82
e 59 86
e 59 90
e 60 63
e 60 65
e 60 68
e 60 70
e 60 71
e 60 72
e 60 74
e 60 78
e 60 81
e 60 83
e 60 84
e 60 85
e 60 87
e 60 88
e 60 89
e 60 91
e 60 93
e 60 94
e 60 96
e 60 97
e 60 98
e 60 99
e 60 103
e 61 62
e 61 64
e 61 66
e 61 67
e 61 73
e 61 76
e 61 77
e 61 79
e 61 80
e 61 82
e 61 86
e 62 64
e 62 67
e 62 73
e 62 76
e 62 77
e 62 79
e 62 80
e 62 82
e 62 86
e 63 65
e 63 70
e 63 71
e 63 72
e 63 74
e 63 78
e 63 83
e 63 84
e 63 85
e 63 87
e 63 96
e 63 97
e 63 101
e 63 114
e 64 66
e 64 67
e 64 69
e 64 73
e 64 76
e 64 77
e 64 79
e 64 80
e 64 82
e 64 86
e 65 70
e 65 71
e 65 78
e 65 83
e 65 85
e 65 97
e 65 101
e 65 114
e 66 68
e 66 69
e 66 74
e 66 75
e 66 81
e 66 90
e 66 102
e 66 118
e 66 123
e 67 73
e 67 76
e 67 77
e 67 79
e 67 80
e 67 82
e 67 86
e 68 69
e 68 71
e 68 72
e 68 74
e 68 75
e 68 81
e 68 84
e 68 87
e 68 88
e 68 89
e 68 90
e 68 93
e 68 94
e 68 98
e 68 99
e 68 102
e 68 103
e 68 118
e 69 74
e 69 75
e 69 81
e 69 89
e 69 90
e 69 102
e 69 103
e 69 118
e 69 123
e 70 71
e 70 72
e 70 74
e 70 78
e 70 83
e 70 84
e 70 85
e 70 87
e 70 96
e 70 97
e 70 101
e 70 114
e 71 72
e 71 74
e 71 78
e 71 81
e 71 83
e 71 84
e 71 85
e 71 87
e 71 88
e 71 89
e 71 91
e 71 92
e 71 93
e 71 94
e 71 95
e 71 96
e 71 97
e 71 98
e 71 99
e 71 100
e 71 101
e 71 110
e 71 114
e 72 74
e 72 75
e 72 78
e 72 81
e 72 83
e 72 84
e 72 85
e 72 87
e 72 88
e 72 89
e 72 93
e 72 94
e 72 98
e 72 99
e 72 103
e 73 76
e 73 77
e 73 79
e 73 80
e 73 82
e 73 86
e 74 75
e 74 78
e 74 81
e 74 83
e 74 84
e 74 87
e 74 88
e 74 89
e 74 93
e 74 94
e 74 98
e 74 99
e 74 103
e 74 110
e 75 81
e 75 89
e 75 90
e 75 99
e 75 102
e 75 103
e 75 118
e 75 123
e 76 77
e 76 79
e 76 80
e 76 82
e 76 86
e 77 79
e 77 80
e 77 82
e 77 86
e 78 83
e 78 84
e 78 85
e 78 87
e 78 88
e 78 91
e 78 96
e 78 97
e 78 101
e 78 114
e 79 80
e 79 82
e 79 86
e 80 82
e 80 86
e 81 84
e 81 87
e 81 88
e 81 89
e 81 90
e 81 93
e 81 94
e 81 98
e 81 99
e 81 103
e 82 86
e 83 84
e 83 85
e 83 87
e 83 88
e 83 89
e 83 91
e 83 92
e 83 93
e 83 94
e 83 95
e 83 96
e 83 97
e 83 98
e 83 100
e 83 101
e 83 114
e 84 87
e 84 88
e 84 89
e 84 91
e 84 92
e 84 93
e 84 94
e 84 95
e 84 96
e 84 98
e 84 99
e 84 100
e 84 101
e 84 103
e 84 110
e 84 113
e 85 88
e 85 91
e 85 96
e 85 97
e 85 101
e 85 114
e 87 88
e 87 89
e 87 93
e 87 94
e 87 98
e 87 99
e 87 103
e 87 110
e 88 89
e 88 91
e 88 92
e 88 93
e 88 94
e 88 95
e 88 96
e 88 98
e 88 99
e 88 100
e 88 101
e 88 110
e 88 113
e 89 93
e 89 94
e 89 98
e 89 99
e 89 103
e 89 110
e 90 102
e 90 118
e 90 123
e 91 92
e 91 93
e 91 94
e 91 95
e 91 96
e 91 100
e 91 101
e 91 104
e 91 105
e 91 106
e 91 107
e 91 108
e 91 109
e 91 110
e 91 111
e 91 113
e 91 114
e 91 115
e 91 116
e 91 117
e 91 120
e 91 121
e 91 122
e 91 125
e 92 93
e 92 94
e 92 95
e 92 96
e 92 100
e 92 101
e 92 104
e 92 105
e 92 106
e 92 107
e 92 108
e 92 109
e 92 110
e 92 111
e 92 112
e 92 113
e 92 115
e 92 116
e 92 117
e 92 119
e 92 120
e 92 121
e 92 122
e 92 124
e 92 125
e 92 126
e 92 127
e 93 94
e 93 95
e 93 96
e 93 98
e 93 99
e 93 100
e 93 103
e 93 110
e 93 113
e 93 122
e 93 125
e 93 126
e 94 96
e 94 98
e 94 99
e 94 100
e 94 103
e 94 110
e 94 113
e 94 122
e 94 125
e 95 96
e 95 100
e 95 101
e 95 104
e 95 105
e 95 106
e 95 107
e 95 108
e 95 109
e 95 111
e 95 112
e 95 113
e 95 114
e 95 115
e 95 116
e 95 117
e 95 119
e 95 120
e 95 121
e 95 122
e 95 124
e 95 125
e 95 126
e 95 127
e 95 128
e 96 97
e 96 100
e 96 101
e 96 114
e 96 116
e 96 117
e 96 120
e 96 121
e 96 124
e 97 101
e 97 114
e 98 99
e 98 103
e 98 110
e 99 103
e 99 110
e 100 104
e 100 105
e 100 106
e 100 107
e 100 108
e 100 109
e 100 110
e 100 111
e 100 112
e 100 113
e 100 116
e 100 117
e 100 119
e 100 120
e 100 122
e 100 125
e 100 126
e 101 114
e 101 116
e 102 118
e 102 123
e 104 105
e 104 106
e 104 107
e 104 108
e 104 109
e 104 110
e 104 111
e 104 112
e 104 113
e 104 115
e 104 116
e 104 117
e 104 119
e 104 120
e 104 121
e 104 122
e 104 124
e 104 125
e 104 126
e 104 127
e 104 128
e 105 106
e 105 107
e 105 108
e 105 109
e 105 110
e 105 111
e 105 112
e 105 113
e 105 115
e 105 116
e 105 117
e 105 119
e 105 120
e 105 121
e 105 122
e 105 124
e 105 125
e 105 126
e 105 127
e 105 128
e 106 107
e 106 108
e 106 109
e 106 110
e 106 111
e 106 112
e 106 113
e 106 115
e 106 116
e 106 117
e 106 119
e 106 120
e 106 121
e 106 122
e 106 124
e 106 125
e 106 126
e 106 127
e 106 128
e 107 108
e 107 109
e 107 110
e 107 111
e 107 112
e 107 113
e 107 115
e 107 116
e 107 117
e 107 119
e 107 120
e 107 121
e 107 122
e 107 124
e 107 125
e 107 126
e 107 127
e 108 109
e 108 110
e 108 111
e 108 112
e 108 113
e 108 115
e 108 116
e 108 117
e 108 119
e 108 120
e 108 121
e 108 122
e 108 124
e 108 125
e 108 126
e 108 127
e 109 111
e 109 112
e 109 113
e 109 115
e 109 116
e 109 117
e 109 119
e 109 120
e 109 121
e 109 122
e 109 124
e 109 125
e 109 126
e 109 127
e 109 128
e 110 111
e 110 113
e 110 119
e 110 122
e 110 125
e 110 126
e 111 112
e 111 113
e 111 115
e 111 116
e 111 117
e 111 119
e 111 120
e 111 121
e 111 122
e 111 124
e 111 125
e 111 126
e 111 127
e 112 113
e 112 115
e 112 116
e 112 117
e 112 119
e 112 120
e 112 121
e 112 122
e 112 124
e 112 125
e 112 126
e 112 127
e 112 128
e 113 115
e 113 119
e 113 122
e 113 125
e 113 126
e 114 116
e 114 117
e 114 121
e 115 116
e 115 117
e 115 119
e 115 120
e 115 121
e 115 122
e 115 124
e 115 126
e 115 127
e 115 128
e 116 117
e 116 120
e 116 121
e 116 124
e 116 127
e 116 128
e 117 119
e 117 120
e 117 121
e 117 124
e 117 127
e 117 128
e 118 123
e 119 120
e 119 122
e 119 124
e 119 125
e 119 126
e 119 127
e 120 121
e 120 124
e 120 127
e 120 128
e 121 124
e 121 127
e 121 128
e 122 125
e 122 126
e 124 127
e 124 128
e 125 126
e 127 128
